language ESSENCE' 1.0

letting n_courses be 120
letting n_periods be 24
letting prerequisite_RelationAsSet_Explicit_1 be
        [1, 1, 1, 1, 1, 1, 1, 1, 1, 1, 1, 2, 2, 2, 2, 2, 2, 2, 2, 2, 2, 3, 3, 3, 3, 3, 3, 3, 3, 3, 3, 3, 3, 3, 3, 3, 3,
         4, 4, 4, 4, 4, 4, 4, 4, 4, 4, 4, 4, 4, 4, 4, 4, 5, 5, 5, 5, 5, 5, 5, 5, 5, 5, 5, 5, 6, 6, 6, 6, 6, 6, 6, 6, 6,
         6, 6, 6, 6, 6, 6, 6, 6, 6, 7, 7, 7, 7, 7, 7, 7, 7, 7, 8, 8, 8, 8, 8, 8, 8, 8, 8, 8, 8, 8, 9, 9, 9, 9, 9, 9, 9,
         9, 9, 9, 9, 9, 9, 9, 9, 10, 10, 10, 10, 10, 10, 10, 10, 10, 10, 10, 10, 11, 11, 11, 11, 11, 11, 11, 11, 11, 11,
         11, 11, 11, 11, 12, 12, 12, 12, 12, 12, 12, 12, 12, 12, 12, 12, 13, 13, 13, 13, 13, 13, 13, 13, 13, 13, 13, 13,
         13, 13, 14, 14, 14, 14, 14, 14, 14, 14, 14, 14, 14, 14, 14, 14, 14, 14, 14, 15, 15, 15, 15, 15, 15, 15, 15, 15,
         15, 15, 15, 16, 16, 17, 18, 18, 18, 19, 19, 21, 22, 22, 23, 24, 24, 24, 24, 25, 28, 30, 30, 31, 32, 32, 33, 34,
         34, 35, 35, 36, 37, 37, 38, 38, 38, 39, 40, 40, 40, 40, 41, 42, 44, 44, 45, 45, 45, 46, 47, 47, 47, 50, 50, 50,
         50, 51, 51, 54, 54, 55, 57, 57, 58, 58, 59, 59, 60, 60, 61, 61, 61, 62, 62, 63, 64, 64, 65, 65, 65, 65, 66, 66,
         67, 67, 67, 68, 68, 69, 70, 70, 72, 72, 74, 74, 74, 74, 76, 76, 77, 77, 77, 78, 79, 79, 80, 80, 81, 81, 82, 82,
         83, 83, 83, 84, 85, 85, 85, 85, 86, 86, 87, 87, 87, 88, 88, 89, 89, 90, 90, 90, 92, 92, 92, 92, 92, 92, 93, 93,
         94; int(1..338)]
letting prerequisite_RelationAsSet_Explicit_2 be
        [17, 36, 40, 46, 49, 53, 57, 58, 66, 77, 88, 21, 24, 25, 55, 67, 72, 74, 75, 80, 94, 16, 20, 21, 22, 24, 29, 31,
         33, 34, 38, 59, 62, 66, 73, 84, 87, 18, 20, 23, 36, 44, 46, 47, 48, 49, 54, 57, 63, 71, 84, 85, 91, 19, 39, 41,
         47, 53, 55, 58, 60, 62, 67, 88, 91, 26, 33, 37, 38, 41, 54, 55, 56, 57, 58, 59, 60, 62, 69, 72, 74, 86, 90, 24,
         28, 41, 46, 54, 68, 73, 76, 94, 17, 21, 22, 25, 30, 38, 43, 59, 64, 65, 80, 90, 19, 20, 22, 23, 27, 34, 35, 41,
         43, 46, 50, 79, 81, 86, 91, 32, 34, 38, 41, 44, 47, 50, 57, 59, 78, 82, 91, 21, 28, 36, 48, 50, 52, 54, 61, 72,
         75, 78, 89, 91, 94, 17, 23, 41, 48, 51, 61, 70, 76, 82, 83, 84, 93, 16, 29, 39, 45, 46, 56, 60, 62, 71, 72, 77,
         78, 79, 94, 17, 18, 27, 30, 34, 36, 37, 42, 68, 70, 75, 77, 78, 84, 85, 86, 92, 19, 21, 27, 36, 52, 58, 61, 64,
         69, 72, 93, 94, 99, 105, 116, 101, 112, 115, 106, 115, 111, 109, 112, 109, 97, 101, 102, 103, 101, 102, 96,
         116, 117, 108, 116, 99, 95, 113, 97, 101, 116, 107, 109, 100, 104, 117, 105, 100, 103, 111, 115, 111, 108, 104,
         115, 100, 105, 106, 98, 101, 106, 111, 100, 106, 111, 119, 112, 120, 107, 111, 105, 105, 114, 96, 99, 96, 114,
         99, 102, 103, 104, 108, 113, 117, 105, 101, 102, 97, 101, 107, 113, 96, 113, 99, 107, 118, 95, 107, 114, 95,
         99, 105, 110, 95, 97, 100, 108, 114, 118, 101, 108, 113, 110, 100, 118, 115, 119, 102, 115, 105, 110, 97, 109,
         119, 120, 101, 107, 108, 114, 97, 104, 101, 113, 117, 112, 120, 107, 113, 96, 107, 108, 98, 101, 104, 105, 114,
         116, 103, 115, 107;
             int(1..338)]
letting course_load_Function1D be
        [5, 4, 2, 2, 6, 5, 5, 2, 4, 4, 3, 4, 5, 5, 2, 3, 2, 4, 5, 5, 6, 3, 4, 5, 3, 4, 2, 3, 2, 4, 2, 4, 6, 3, 2, 2, 5,
         4, 3, 6, 3, 3, 5, 4, 5, 5, 6, 2, 2, 3, 6, 5, 6, 3, 3, 4, 3, 4, 3, 5, 6, 6, 4, 3, 2, 2, 5, 3, 3, 2, 4, 2, 4, 5,
         4, 2, 2, 3, 2, 6, 3, 2, 5, 3, 4, 2, 3, 5, 2, 3, 2, 3, 3, 5, 3, 4, 4, 4, 3, 5, 3, 4, 2, 2, 5, 3, 5, 2, 2, 5, 2,
         4, 4, 3, 3, 2, 3, 4, 5, 2;
             int(1..120)]
letting load_per_period_ub be 37
letting load_per_period_lb be 3
letting courses_per_period_ub be 8
letting courses_per_period_lb be 5
letting fin1 be 338
letting fin2 be 120
letting fin3 be 6
